benchmark_str_length/p1_10_8-1.dzn
Alphabet = {A,C,G,T};
ns = 10;
nc = 8;
sl = 10;
neighbours = [| I(A),I(A),I(A),I(A),I(A),I(A),I(A),I(A) | I(C),I(A),I(A),I(A),I(G),I(A),I(A),I(A) | I(A),I(A),I(G),I(A),I(C),I(C),I(A),I(A) | I(A),I(A),I(C),I(C),I(G),I(A),I(A),I(C) | I(C),I(A),I(A),I(A),I(A),I(A),I(A),I(A) | I(A),I(A),I(A),I(C),I(A),I(C),I(C),I(C) | I(A),I(C),I(C),I(A),I(A),I(A),I(G),I(A) | I(A),I(T),I(G),I(A),I(A),I(A),I(C),I(A) | I(A),I(A),I(C),I(A),I(C),I(A),I(A),I(C) | I(C),I(C),I(A),I(C),I(A),I(A),I(A),I(C) |];
