benchmark_str_length/p1_10_8-1.txt
{
	"num_strings": 10,
	"alphabet": "ACGT",
	"strings": [
		"AAAAAAAA",
		"CAAAGAAA",
		"AAGACCAA",
		"AACCGAAC",
		"CAAAAAAA",
		"AAACACCC",
		"ACCAAAGA",
		"ATGAAACA",
		"AACACAAC",
		"CCACAAAC"
	],
	"str_length":[8,8,8,8,8,8,8,8,8,8]
}